* #variable= 976 #constraint= 900 
+1 x57 = 1 ;
+1 x58 = 0 ;
+1 x59 = 0 ;
+1 x60 = 0 ;
+1 x61 = 0 ;
+1 x62 = 0 ;
+1 x63 = 0 ;
+1 x64 = 0 ;
+1 x65 = 0 ;
+1 x66 = 0 ;
+1 x67 = 0 ;
+2 x80 +1 x68 -1 x46 -1 x57 = 0 ;
+2 x81 +1 x69 -1 x47 -1 x80 -1 x58 = 0 ;
+2 x82 +1 x70 -1 x48 -1 x81 -1 x59 = 0 ;
+2 x83 +1 x71 -1 x49 -1 x82 -1 x60 = 0 ;
+2 x84 +1 x72 -1 x50 -1 x83 -1 x61 = 0 ;
+2 x85 +1 x73 -1 x51 -1 x84 -1 x62 = 0 ;
+2 x86 +1 x74 -1 x52 -1 x85 -1 x63 = 0 ;
+2 x87 +1 x75 -1 x53 -1 x86 -1 x64 = 0 ;
+2 x88 +1 x76 -1 x54 -1 x87 -1 x65 = 0 ;
+2 x89 +1 x77 -1 x55 -1 x88 -1 x66 = 0 ;
+2 x90 +1 x78 -1 x56 -1 x89 -1 x67 = 0 ;
+1 x90 -1 x79 = 0 ;
+2 x91 +1 x954 -1 x932 -1 x1 = 0 ;
+2 x92 +1 x955 -1 x933 -1 x91 -1 x2 = 0 ;
+2 x93 +1 x956 -1 x934 -1 x92 -1 x3 = 0 ;
+2 x94 +1 x957 -1 x935 -1 x93 -1 x4 = 0 ;
+2 x95 +1 x958 -1 x936 -1 x94 -1 x5 = 0 ;
+2 x96 +1 x959 -1 x937 -1 x95 -1 x6 = 0 ;
+2 x97 +1 x960 -1 x938 -1 x96 -1 x7 = 0 ;
+2 x98 +1 x961 -1 x939 -1 x97 -1 x8 = 0 ;
+2 x99 +1 x962 -1 x940 -1 x98 -1 x9 = 0 ;
+2 x100 +1 x963 -1 x941 -1 x99 -1 x10 = 0 ;
+2 x101 +1 x964 -1 x942 -1 x100 -1 x11 = 0 ;
+2 x102 +1 x965 -1 x943 -1 x101 -1 x12 = 0 ;
+2 x103 +1 x966 -1 x944 -1 x102 -1 x13 = 0 ;
+2 x104 +1 x967 -1 x945 -1 x103 -1 x14 = 0 ;
+2 x105 +1 x968 -1 x946 -1 x104 -1 x15 = 0 ;
+2 x106 +1 x969 -1 x947 -1 x105 -1 x16 = 0 ;
+2 x107 +1 x970 -1 x948 -1 x106 -1 x17 = 0 ;
+2 x108 +1 x971 -1 x949 -1 x107 -1 x18 = 0 ;
+2 x109 +1 x972 -1 x950 -1 x108 -1 x19 = 0 ;
+2 x110 +1 x973 -1 x951 -1 x109 -1 x20 = 0 ;
+2 x111 +1 x974 -1 x952 -1 x110 -1 x21 = 0 ;
+2 x112 +1 x975 -1 x953 -1 x111 -1 x22 = 0 ;
+1 x112 -1 x976 = 0 ;
+1 x12 = 0 ;
+1 x13 = 0 ;
+1 x14 = 0 ;
+1 x15 = 0 ;
+1 x16 = 0 ;
+1 x17 = 0 ;
+1 x18 = 0 ;
+1 x19 = 0 ;
+1 x20 = 0 ;
+1 x21 = 0 ;
+1 x22 = 0 ;
+1 x45 = 0 ;
+1 x34 -1 x1 >= 0 ;
+1 x34 -1 x23 >= 0 ;
-1 x34 +1 x1 +1 x23 >= 0 ;
+1 x23 = 0 ;
+1 x35 -1 x2 >= 0 ;
+1 x35 -1 x24 >= 0 ;
-1 x35 +1 x2 +1 x24 >= 0 ;
+1 x24 = 1 ;
+1 x36 -1 x3 >= 0 ;
+1 x36 -1 x25 >= 0 ;
-1 x36 +1 x3 +1 x25 >= 0 ;
+1 x25 = 0 ;
+1 x37 -1 x4 >= 0 ;
+1 x37 -1 x26 >= 0 ;
-1 x37 +1 x4 +1 x26 >= 0 ;
+1 x26 = 1 ;
+1 x38 -1 x5 >= 0 ;
+1 x38 -1 x27 >= 0 ;
-1 x38 +1 x5 +1 x27 >= 0 ;
+1 x27 = 0 ;
+1 x39 -1 x6 >= 0 ;
+1 x39 -1 x28 >= 0 ;
-1 x39 +1 x6 +1 x28 >= 0 ;
+1 x28 = 1 ;
+1 x40 -1 x7 >= 0 ;
+1 x40 -1 x29 >= 0 ;
-1 x40 +1 x7 +1 x29 >= 0 ;
+1 x29 = 0 ;
+1 x41 -1 x8 >= 0 ;
+1 x41 -1 x30 >= 0 ;
-1 x41 +1 x8 +1 x30 >= 0 ;
+1 x30 = 1 ;
+1 x42 -1 x9 >= 0 ;
+1 x42 -1 x31 >= 0 ;
-1 x42 +1 x9 +1 x31 >= 0 ;
+1 x31 = 0 ;
+1 x43 -1 x10 >= 0 ;
+1 x43 -1 x32 >= 0 ;
-1 x43 +1 x10 +1 x32 >= 0 ;
+1 x32 = 1 ;
+1 x44 -1 x11 >= 0 ;
+1 x44 -1 x33 >= 0 ;
-1 x44 +1 x11 +1 x33 >= 0 ;
+1 x33 = 0 ;
-1 x113 +1 x34 >= 0 ;
-1 x113 +1 x68 >= 0 ;
+1 x113 -1 x34 -1 x68 >= -1 ;
+1 x113 +2 x125 +4 x137 +8 x149 +16 x161 +32 x173 +64 x185 +128 x197 +256 x209 +512 x221 +1024 x233 +2048 x245 +2 x114 +4 x126 +8 x138 +16 x150 +32 x162 +64 x174 +128 x186 +256 x198 +512 x210 +1024 x222 +2048 x234 +4096 x246 +4 x115 +8 x127 +16 x139 +32 x151 +64 x163 +128 x175 +256 x187 +512 x199 +1024 x211 +2048 x223 +4096 x235 +8192 x247 +8 x116 +16 x128 +32 x140 +64 x152 +128 x164 +256 x176 +512 x188 +1024 x200 +2048 x212 +4096 x224 +8192 x236 +16384 x248 +16 x117 +32 x129 +64 x141 +128 x153 +256 x165 +512 x177 +1024 x189 +2048 x201 +4096 x213 +8192 x225 +16384 x237 +32768 x249 +32 x118 +64 x130 +128 x142 +256 x154 +512 x166 +1024 x178 +2048 x190 +4096 x202 +8192 x214 +16384 x226 +32768 x238 +65536 x250 +64 x119 +128 x131 +256 x143 +512 x155 +1024 x167 +2048 x179 +4096 x191 +8192 x203 +16384 x215 +32768 x227 +65536 x239 +131072 x251 +128 x120 +256 x132 +512 x144 +1024 x156 +2048 x168 +4096 x180 +8192 x192 +16384 x204 +32768 x216 +65536 x228 +131072 x240 +262144 x252 +256 x121 +512 x133 +1024 x145 +2048 x157 +4096 x169 +8192 x181 +16384 x193 +32768 x205 +65536 x217 +131072 x229 +262144 x241 +524288 x253 +512 x122 +1024 x134 +2048 x146 +4096 x158 +8192 x170 +16384 x182 +32768 x194 +65536 x206 +131072 x218 +262144 x230 +524288 x242 +1048576 x254 +1024 x123 +2048 x135 +4096 x147 +8192 x159 +16384 x171 +32768 x183 +65536 x195 +131072 x207 +262144 x219 +524288 x231 +1048576 x243 +2097152 x255 +2048 x124 +4096 x136 +8192 x148 +16384 x160 +32768 x172 +65536 x184 +131072 x196 +262144 x208 +524288 x220 +1048576 x232 +2097152 x244 +4194304 x256 -1 x545 -2 x546 -4 x547 -8 x548 -16 x549 -32 x550 -64 x551 -128 x552 -256 x553 -512 x554 -1024 x555 -2048 x556 -4096 x557 -8192 x558 -16384 x559 -32768 x560 -65536 x561 -131072 x562 -262144 x563 -524288 x564 -1048576 x565 -2097152 x566 -4194304 x567 -8388608 x568 = 0; 
-1 x569 +1 x23 >= 0 ;
-1 x569 +1 x46 >= 0 ;
+1 x569 -1 x23 -1 x46 >= -1 ;
+1 x569 +2 x580 +4 x591 +8 x602 +16 x613 +32 x624 +64 x635 +128 x646 +256 x657 +512 x668 +1024 x679 +2 x570 +4 x581 +8 x592 +16 x603 +32 x614 +64 x625 +128 x636 +256 x647 +512 x658 +1024 x669 +2048 x680 +4 x571 +8 x582 +16 x593 +32 x604 +64 x615 +128 x626 +256 x637 +512 x648 +1024 x659 +2048 x670 +4096 x681 +8 x572 +16 x583 +32 x594 +64 x605 +128 x616 +256 x627 +512 x638 +1024 x649 +2048 x660 +4096 x671 +8192 x682 +16 x573 +32 x584 +64 x595 +128 x606 +256 x617 +512 x628 +1024 x639 +2048 x650 +4096 x661 +8192 x672 +16384 x683 +32 x574 +64 x585 +128 x596 +256 x607 +512 x618 +1024 x629 +2048 x640 +4096 x651 +8192 x662 +16384 x673 +32768 x684 +64 x575 +128 x586 +256 x597 +512 x608 +1024 x619 +2048 x630 +4096 x641 +8192 x652 +16384 x663 +32768 x674 +65536 x685 +128 x576 +256 x587 +512 x598 +1024 x609 +2048 x620 +4096 x631 +8192 x642 +16384 x653 +32768 x664 +65536 x675 +131072 x686 +256 x577 +512 x588 +1024 x599 +2048 x610 +4096 x621 +8192 x632 +16384 x643 +32768 x654 +65536 x665 +131072 x676 +262144 x687 +512 x578 +1024 x589 +2048 x600 +4096 x611 +8192 x622 +16384 x633 +32768 x644 +65536 x655 +131072 x666 +262144 x677 +524288 x688 +1024 x579 +2048 x590 +4096 x601 +8192 x612 +16384 x623 +32768 x634 +65536 x645 +131072 x656 +262144 x667 +524288 x678 +1048576 x689 -1 x932 -2 x933 -4 x934 -8 x935 -16 x936 -32 x937 -64 x938 -128 x939 -256 x940 -512 x941 -1024 x942 -2048 x943 -4096 x944 -8192 x945 -16384 x946 -32768 x947 -65536 x948 -131072 x949 -262144 x950 -524288 x951 -1048576 x952 -2097152 x953 = 0; 
+1 x954 -1 x545 +2 x955 -2 x546 +4 x956 -4 x547 +8 x957 -8 x548 +16 x958 -16 x549 +32 x959 -32 x550 +64 x960 -64 x551 +128 x961 -128 x552 +256 x962 -256 x553 +512 x963 -512 x554 +1024 x964 -1024 x555 +2048 x965 -2048 x556 +4096 x966 -4096 x557 +8192 x967 -8192 x558 +16384 x968 -16384 x559 +32768 x969 -32768 x560 +65536 x970 -65536 x561 +131072 x971 -131072 x562 +262144 x972 -262144 x563 +524288 x973 -524288 x564 +1048576 x974 -1048576 x565 +2097152 x975 -2097152 x566 +4194304 x976 -4194304 x567 >= 1 ;
-1 x125 +1 x35 >= 0 ;
-1 x125 +1 x68 >= 0 ;
+1 x125 -1 x35 -1 x68 >= -1 ;
-1 x114 +1 x34 >= 0 ;
-1 x114 +1 x69 >= 0 ;
+1 x114 -1 x34 -1 x69 >= -1 ;
-1 x580 +1 x24 >= 0 ;
-1 x580 +1 x46 >= 0 ;
+1 x580 -1 x24 -1 x46 >= -1 ;
-1 x570 +1 x23 >= 0 ;
-1 x570 +1 x47 >= 0 ;
+1 x570 -1 x23 -1 x47 >= -1 ;
-1 x137 +1 x36 >= 0 ;
-1 x137 +1 x68 >= 0 ;
+1 x137 -1 x36 -1 x68 >= -1 ;
-1 x126 +1 x35 >= 0 ;
-1 x126 +1 x69 >= 0 ;
+1 x126 -1 x35 -1 x69 >= -1 ;
-1 x115 +1 x34 >= 0 ;
-1 x115 +1 x70 >= 0 ;
+1 x115 -1 x34 -1 x70 >= -1 ;
-1 x591 +1 x25 >= 0 ;
-1 x591 +1 x46 >= 0 ;
+1 x591 -1 x25 -1 x46 >= -1 ;
-1 x581 +1 x24 >= 0 ;
-1 x581 +1 x47 >= 0 ;
+1 x581 -1 x24 -1 x47 >= -1 ;
-1 x571 +1 x23 >= 0 ;
-1 x571 +1 x48 >= 0 ;
+1 x571 -1 x23 -1 x48 >= -1 ;
-1 x149 +1 x37 >= 0 ;
-1 x149 +1 x68 >= 0 ;
+1 x149 -1 x37 -1 x68 >= -1 ;
-1 x138 +1 x36 >= 0 ;
-1 x138 +1 x69 >= 0 ;
+1 x138 -1 x36 -1 x69 >= -1 ;
-1 x127 +1 x35 >= 0 ;
-1 x127 +1 x70 >= 0 ;
+1 x127 -1 x35 -1 x70 >= -1 ;
-1 x116 +1 x34 >= 0 ;
-1 x116 +1 x71 >= 0 ;
+1 x116 -1 x34 -1 x71 >= -1 ;
-1 x602 +1 x26 >= 0 ;
-1 x602 +1 x46 >= 0 ;
+1 x602 -1 x26 -1 x46 >= -1 ;
-1 x592 +1 x25 >= 0 ;
-1 x592 +1 x47 >= 0 ;
+1 x592 -1 x25 -1 x47 >= -1 ;
-1 x582 +1 x24 >= 0 ;
-1 x582 +1 x48 >= 0 ;
+1 x582 -1 x24 -1 x48 >= -1 ;
-1 x572 +1 x23 >= 0 ;
-1 x572 +1 x49 >= 0 ;
+1 x572 -1 x23 -1 x49 >= -1 ;
-1 x161 +1 x38 >= 0 ;
-1 x161 +1 x68 >= 0 ;
+1 x161 -1 x38 -1 x68 >= -1 ;
-1 x150 +1 x37 >= 0 ;
-1 x150 +1 x69 >= 0 ;
+1 x150 -1 x37 -1 x69 >= -1 ;
-1 x139 +1 x36 >= 0 ;
-1 x139 +1 x70 >= 0 ;
+1 x139 -1 x36 -1 x70 >= -1 ;
-1 x128 +1 x35 >= 0 ;
-1 x128 +1 x71 >= 0 ;
+1 x128 -1 x35 -1 x71 >= -1 ;
-1 x117 +1 x34 >= 0 ;
-1 x117 +1 x72 >= 0 ;
+1 x117 -1 x34 -1 x72 >= -1 ;
-1 x613 +1 x27 >= 0 ;
-1 x613 +1 x46 >= 0 ;
+1 x613 -1 x27 -1 x46 >= -1 ;
-1 x603 +1 x26 >= 0 ;
-1 x603 +1 x47 >= 0 ;
+1 x603 -1 x26 -1 x47 >= -1 ;
-1 x593 +1 x25 >= 0 ;
-1 x593 +1 x48 >= 0 ;
+1 x593 -1 x25 -1 x48 >= -1 ;
-1 x583 +1 x24 >= 0 ;
-1 x583 +1 x49 >= 0 ;
+1 x583 -1 x24 -1 x49 >= -1 ;
-1 x573 +1 x23 >= 0 ;
-1 x573 +1 x50 >= 0 ;
+1 x573 -1 x23 -1 x50 >= -1 ;
-1 x173 +1 x39 >= 0 ;
-1 x173 +1 x68 >= 0 ;
+1 x173 -1 x39 -1 x68 >= -1 ;
-1 x162 +1 x38 >= 0 ;
-1 x162 +1 x69 >= 0 ;
+1 x162 -1 x38 -1 x69 >= -1 ;
-1 x151 +1 x37 >= 0 ;
-1 x151 +1 x70 >= 0 ;
+1 x151 -1 x37 -1 x70 >= -1 ;
-1 x140 +1 x36 >= 0 ;
-1 x140 +1 x71 >= 0 ;
+1 x140 -1 x36 -1 x71 >= -1 ;
-1 x129 +1 x35 >= 0 ;
-1 x129 +1 x72 >= 0 ;
+1 x129 -1 x35 -1 x72 >= -1 ;
-1 x118 +1 x34 >= 0 ;
-1 x118 +1 x73 >= 0 ;
+1 x118 -1 x34 -1 x73 >= -1 ;
-1 x624 +1 x28 >= 0 ;
-1 x624 +1 x46 >= 0 ;
+1 x624 -1 x28 -1 x46 >= -1 ;
-1 x614 +1 x27 >= 0 ;
-1 x614 +1 x47 >= 0 ;
+1 x614 -1 x27 -1 x47 >= -1 ;
-1 x604 +1 x26 >= 0 ;
-1 x604 +1 x48 >= 0 ;
+1 x604 -1 x26 -1 x48 >= -1 ;
-1 x594 +1 x25 >= 0 ;
-1 x594 +1 x49 >= 0 ;
+1 x594 -1 x25 -1 x49 >= -1 ;
-1 x584 +1 x24 >= 0 ;
-1 x584 +1 x50 >= 0 ;
+1 x584 -1 x24 -1 x50 >= -1 ;
-1 x574 +1 x23 >= 0 ;
-1 x574 +1 x51 >= 0 ;
+1 x574 -1 x23 -1 x51 >= -1 ;
-1 x185 +1 x40 >= 0 ;
-1 x185 +1 x68 >= 0 ;
+1 x185 -1 x40 -1 x68 >= -1 ;
-1 x174 +1 x39 >= 0 ;
-1 x174 +1 x69 >= 0 ;
+1 x174 -1 x39 -1 x69 >= -1 ;
-1 x163 +1 x38 >= 0 ;
-1 x163 +1 x70 >= 0 ;
+1 x163 -1 x38 -1 x70 >= -1 ;
-1 x152 +1 x37 >= 0 ;
-1 x152 +1 x71 >= 0 ;
+1 x152 -1 x37 -1 x71 >= -1 ;
-1 x141 +1 x36 >= 0 ;
-1 x141 +1 x72 >= 0 ;
+1 x141 -1 x36 -1 x72 >= -1 ;
-1 x130 +1 x35 >= 0 ;
-1 x130 +1 x73 >= 0 ;
+1 x130 -1 x35 -1 x73 >= -1 ;
-1 x119 +1 x34 >= 0 ;
-1 x119 +1 x74 >= 0 ;
+1 x119 -1 x34 -1 x74 >= -1 ;
-1 x635 +1 x29 >= 0 ;
-1 x635 +1 x46 >= 0 ;
+1 x635 -1 x29 -1 x46 >= -1 ;
-1 x625 +1 x28 >= 0 ;
-1 x625 +1 x47 >= 0 ;
+1 x625 -1 x28 -1 x47 >= -1 ;
-1 x615 +1 x27 >= 0 ;
-1 x615 +1 x48 >= 0 ;
+1 x615 -1 x27 -1 x48 >= -1 ;
-1 x605 +1 x26 >= 0 ;
-1 x605 +1 x49 >= 0 ;
+1 x605 -1 x26 -1 x49 >= -1 ;
-1 x595 +1 x25 >= 0 ;
-1 x595 +1 x50 >= 0 ;
+1 x595 -1 x25 -1 x50 >= -1 ;
-1 x585 +1 x24 >= 0 ;
-1 x585 +1 x51 >= 0 ;
+1 x585 -1 x24 -1 x51 >= -1 ;
-1 x575 +1 x23 >= 0 ;
-1 x575 +1 x52 >= 0 ;
+1 x575 -1 x23 -1 x52 >= -1 ;
-1 x197 +1 x41 >= 0 ;
-1 x197 +1 x68 >= 0 ;
+1 x197 -1 x41 -1 x68 >= -1 ;
-1 x186 +1 x40 >= 0 ;
-1 x186 +1 x69 >= 0 ;
+1 x186 -1 x40 -1 x69 >= -1 ;
-1 x175 +1 x39 >= 0 ;
-1 x175 +1 x70 >= 0 ;
+1 x175 -1 x39 -1 x70 >= -1 ;
-1 x164 +1 x38 >= 0 ;
-1 x164 +1 x71 >= 0 ;
+1 x164 -1 x38 -1 x71 >= -1 ;
-1 x153 +1 x37 >= 0 ;
-1 x153 +1 x72 >= 0 ;
+1 x153 -1 x37 -1 x72 >= -1 ;
-1 x142 +1 x36 >= 0 ;
-1 x142 +1 x73 >= 0 ;
+1 x142 -1 x36 -1 x73 >= -1 ;
-1 x131 +1 x35 >= 0 ;
-1 x131 +1 x74 >= 0 ;
+1 x131 -1 x35 -1 x74 >= -1 ;
-1 x120 +1 x34 >= 0 ;
-1 x120 +1 x75 >= 0 ;
+1 x120 -1 x34 -1 x75 >= -1 ;
-1 x646 +1 x30 >= 0 ;
-1 x646 +1 x46 >= 0 ;
+1 x646 -1 x30 -1 x46 >= -1 ;
-1 x636 +1 x29 >= 0 ;
-1 x636 +1 x47 >= 0 ;
+1 x636 -1 x29 -1 x47 >= -1 ;
-1 x626 +1 x28 >= 0 ;
-1 x626 +1 x48 >= 0 ;
+1 x626 -1 x28 -1 x48 >= -1 ;
-1 x616 +1 x27 >= 0 ;
-1 x616 +1 x49 >= 0 ;
+1 x616 -1 x27 -1 x49 >= -1 ;
-1 x606 +1 x26 >= 0 ;
-1 x606 +1 x50 >= 0 ;
+1 x606 -1 x26 -1 x50 >= -1 ;
-1 x596 +1 x25 >= 0 ;
-1 x596 +1 x51 >= 0 ;
+1 x596 -1 x25 -1 x51 >= -1 ;
-1 x586 +1 x24 >= 0 ;
-1 x586 +1 x52 >= 0 ;
+1 x586 -1 x24 -1 x52 >= -1 ;
-1 x576 +1 x23 >= 0 ;
-1 x576 +1 x53 >= 0 ;
+1 x576 -1 x23 -1 x53 >= -1 ;
-1 x209 +1 x42 >= 0 ;
-1 x209 +1 x68 >= 0 ;
+1 x209 -1 x42 -1 x68 >= -1 ;
-1 x198 +1 x41 >= 0 ;
-1 x198 +1 x69 >= 0 ;
+1 x198 -1 x41 -1 x69 >= -1 ;
-1 x187 +1 x40 >= 0 ;
-1 x187 +1 x70 >= 0 ;
+1 x187 -1 x40 -1 x70 >= -1 ;
-1 x176 +1 x39 >= 0 ;
-1 x176 +1 x71 >= 0 ;
+1 x176 -1 x39 -1 x71 >= -1 ;
-1 x165 +1 x38 >= 0 ;
-1 x165 +1 x72 >= 0 ;
+1 x165 -1 x38 -1 x72 >= -1 ;
-1 x154 +1 x37 >= 0 ;
-1 x154 +1 x73 >= 0 ;
+1 x154 -1 x37 -1 x73 >= -1 ;
-1 x143 +1 x36 >= 0 ;
-1 x143 +1 x74 >= 0 ;
+1 x143 -1 x36 -1 x74 >= -1 ;
-1 x132 +1 x35 >= 0 ;
-1 x132 +1 x75 >= 0 ;
+1 x132 -1 x35 -1 x75 >= -1 ;
-1 x121 +1 x34 >= 0 ;
-1 x121 +1 x76 >= 0 ;
+1 x121 -1 x34 -1 x76 >= -1 ;
-1 x657 +1 x31 >= 0 ;
-1 x657 +1 x46 >= 0 ;
+1 x657 -1 x31 -1 x46 >= -1 ;
-1 x647 +1 x30 >= 0 ;
-1 x647 +1 x47 >= 0 ;
+1 x647 -1 x30 -1 x47 >= -1 ;
-1 x637 +1 x29 >= 0 ;
-1 x637 +1 x48 >= 0 ;
+1 x637 -1 x29 -1 x48 >= -1 ;
-1 x627 +1 x28 >= 0 ;
-1 x627 +1 x49 >= 0 ;
+1 x627 -1 x28 -1 x49 >= -1 ;
-1 x617 +1 x27 >= 0 ;
-1 x617 +1 x50 >= 0 ;
+1 x617 -1 x27 -1 x50 >= -1 ;
-1 x607 +1 x26 >= 0 ;
-1 x607 +1 x51 >= 0 ;
+1 x607 -1 x26 -1 x51 >= -1 ;
-1 x597 +1 x25 >= 0 ;
-1 x597 +1 x52 >= 0 ;
+1 x597 -1 x25 -1 x52 >= -1 ;
-1 x587 +1 x24 >= 0 ;
-1 x587 +1 x53 >= 0 ;
+1 x587 -1 x24 -1 x53 >= -1 ;
-1 x577 +1 x23 >= 0 ;
-1 x577 +1 x54 >= 0 ;
+1 x577 -1 x23 -1 x54 >= -1 ;
-1 x221 +1 x43 >= 0 ;
-1 x221 +1 x68 >= 0 ;
+1 x221 -1 x43 -1 x68 >= -1 ;
-1 x210 +1 x42 >= 0 ;
-1 x210 +1 x69 >= 0 ;
+1 x210 -1 x42 -1 x69 >= -1 ;
-1 x199 +1 x41 >= 0 ;
-1 x199 +1 x70 >= 0 ;
+1 x199 -1 x41 -1 x70 >= -1 ;
-1 x188 +1 x40 >= 0 ;
-1 x188 +1 x71 >= 0 ;
+1 x188 -1 x40 -1 x71 >= -1 ;
-1 x177 +1 x39 >= 0 ;
-1 x177 +1 x72 >= 0 ;
+1 x177 -1 x39 -1 x72 >= -1 ;
-1 x166 +1 x38 >= 0 ;
-1 x166 +1 x73 >= 0 ;
+1 x166 -1 x38 -1 x73 >= -1 ;
-1 x155 +1 x37 >= 0 ;
-1 x155 +1 x74 >= 0 ;
+1 x155 -1 x37 -1 x74 >= -1 ;
-1 x144 +1 x36 >= 0 ;
-1 x144 +1 x75 >= 0 ;
+1 x144 -1 x36 -1 x75 >= -1 ;
-1 x133 +1 x35 >= 0 ;
-1 x133 +1 x76 >= 0 ;
+1 x133 -1 x35 -1 x76 >= -1 ;
-1 x122 +1 x34 >= 0 ;
-1 x122 +1 x77 >= 0 ;
+1 x122 -1 x34 -1 x77 >= -1 ;
-1 x668 +1 x32 >= 0 ;
-1 x668 +1 x46 >= 0 ;
+1 x668 -1 x32 -1 x46 >= -1 ;
-1 x658 +1 x31 >= 0 ;
-1 x658 +1 x47 >= 0 ;
+1 x658 -1 x31 -1 x47 >= -1 ;
-1 x648 +1 x30 >= 0 ;
-1 x648 +1 x48 >= 0 ;
+1 x648 -1 x30 -1 x48 >= -1 ;
-1 x638 +1 x29 >= 0 ;
-1 x638 +1 x49 >= 0 ;
+1 x638 -1 x29 -1 x49 >= -1 ;
-1 x628 +1 x28 >= 0 ;
-1 x628 +1 x50 >= 0 ;
+1 x628 -1 x28 -1 x50 >= -1 ;
-1 x618 +1 x27 >= 0 ;
-1 x618 +1 x51 >= 0 ;
+1 x618 -1 x27 -1 x51 >= -1 ;
-1 x608 +1 x26 >= 0 ;
-1 x608 +1 x52 >= 0 ;
+1 x608 -1 x26 -1 x52 >= -1 ;
-1 x598 +1 x25 >= 0 ;
-1 x598 +1 x53 >= 0 ;
+1 x598 -1 x25 -1 x53 >= -1 ;
-1 x588 +1 x24 >= 0 ;
-1 x588 +1 x54 >= 0 ;
+1 x588 -1 x24 -1 x54 >= -1 ;
-1 x578 +1 x23 >= 0 ;
-1 x578 +1 x55 >= 0 ;
+1 x578 -1 x23 -1 x55 >= -1 ;
-1 x233 +1 x44 >= 0 ;
-1 x233 +1 x68 >= 0 ;
+1 x233 -1 x44 -1 x68 >= -1 ;
-1 x222 +1 x43 >= 0 ;
-1 x222 +1 x69 >= 0 ;
+1 x222 -1 x43 -1 x69 >= -1 ;
-1 x211 +1 x42 >= 0 ;
-1 x211 +1 x70 >= 0 ;
+1 x211 -1 x42 -1 x70 >= -1 ;
-1 x200 +1 x41 >= 0 ;
-1 x200 +1 x71 >= 0 ;
+1 x200 -1 x41 -1 x71 >= -1 ;
-1 x189 +1 x40 >= 0 ;
-1 x189 +1 x72 >= 0 ;
+1 x189 -1 x40 -1 x72 >= -1 ;
-1 x178 +1 x39 >= 0 ;
-1 x178 +1 x73 >= 0 ;
+1 x178 -1 x39 -1 x73 >= -1 ;
-1 x167 +1 x38 >= 0 ;
-1 x167 +1 x74 >= 0 ;
+1 x167 -1 x38 -1 x74 >= -1 ;
-1 x156 +1 x37 >= 0 ;
-1 x156 +1 x75 >= 0 ;
+1 x156 -1 x37 -1 x75 >= -1 ;
-1 x145 +1 x36 >= 0 ;
-1 x145 +1 x76 >= 0 ;
+1 x145 -1 x36 -1 x76 >= -1 ;
-1 x134 +1 x35 >= 0 ;
-1 x134 +1 x77 >= 0 ;
+1 x134 -1 x35 -1 x77 >= -1 ;
-1 x123 +1 x34 >= 0 ;
-1 x123 +1 x78 >= 0 ;
+1 x123 -1 x34 -1 x78 >= -1 ;
-1 x679 +1 x33 >= 0 ;
-1 x679 +1 x46 >= 0 ;
+1 x679 -1 x33 -1 x46 >= -1 ;
-1 x669 +1 x32 >= 0 ;
-1 x669 +1 x47 >= 0 ;
+1 x669 -1 x32 -1 x47 >= -1 ;
-1 x659 +1 x31 >= 0 ;
-1 x659 +1 x48 >= 0 ;
+1 x659 -1 x31 -1 x48 >= -1 ;
-1 x649 +1 x30 >= 0 ;
-1 x649 +1 x49 >= 0 ;
+1 x649 -1 x30 -1 x49 >= -1 ;
-1 x639 +1 x29 >= 0 ;
-1 x639 +1 x50 >= 0 ;
+1 x639 -1 x29 -1 x50 >= -1 ;
-1 x629 +1 x28 >= 0 ;
-1 x629 +1 x51 >= 0 ;
+1 x629 -1 x28 -1 x51 >= -1 ;
-1 x619 +1 x27 >= 0 ;
-1 x619 +1 x52 >= 0 ;
+1 x619 -1 x27 -1 x52 >= -1 ;
-1 x609 +1 x26 >= 0 ;
-1 x609 +1 x53 >= 0 ;
+1 x609 -1 x26 -1 x53 >= -1 ;
-1 x599 +1 x25 >= 0 ;
-1 x599 +1 x54 >= 0 ;
+1 x599 -1 x25 -1 x54 >= -1 ;
-1 x589 +1 x24 >= 0 ;
-1 x589 +1 x55 >= 0 ;
+1 x589 -1 x24 -1 x55 >= -1 ;
-1 x579 +1 x23 >= 0 ;
-1 x579 +1 x56 >= 0 ;
+1 x579 -1 x23 -1 x56 >= -1 ;
-1 x245 +1 x45 >= 0 ;
-1 x245 +1 x68 >= 0 ;
+1 x245 -1 x45 -1 x68 >= -1 ;
-1 x234 +1 x44 >= 0 ;
-1 x234 +1 x69 >= 0 ;
+1 x234 -1 x44 -1 x69 >= -1 ;
-1 x223 +1 x43 >= 0 ;
-1 x223 +1 x70 >= 0 ;
+1 x223 -1 x43 -1 x70 >= -1 ;
-1 x212 +1 x42 >= 0 ;
-1 x212 +1 x71 >= 0 ;
+1 x212 -1 x42 -1 x71 >= -1 ;
-1 x201 +1 x41 >= 0 ;
-1 x201 +1 x72 >= 0 ;
+1 x201 -1 x41 -1 x72 >= -1 ;
-1 x190 +1 x40 >= 0 ;
-1 x190 +1 x73 >= 0 ;
+1 x190 -1 x40 -1 x73 >= -1 ;
-1 x179 +1 x39 >= 0 ;
-1 x179 +1 x74 >= 0 ;
+1 x179 -1 x39 -1 x74 >= -1 ;
-1 x168 +1 x38 >= 0 ;
-1 x168 +1 x75 >= 0 ;
+1 x168 -1 x38 -1 x75 >= -1 ;
-1 x157 +1 x37 >= 0 ;
-1 x157 +1 x76 >= 0 ;
+1 x157 -1 x37 -1 x76 >= -1 ;
-1 x146 +1 x36 >= 0 ;
-1 x146 +1 x77 >= 0 ;
+1 x146 -1 x36 -1 x77 >= -1 ;
-1 x135 +1 x35 >= 0 ;
-1 x135 +1 x78 >= 0 ;
+1 x135 -1 x35 -1 x78 >= -1 ;
-1 x124 +1 x34 >= 0 ;
-1 x124 +1 x79 >= 0 ;
+1 x124 -1 x34 -1 x79 >= -1 ;
-1 x680 +1 x33 >= 0 ;
-1 x680 +1 x47 >= 0 ;
+1 x680 -1 x33 -1 x47 >= -1 ;
-1 x670 +1 x32 >= 0 ;
-1 x670 +1 x48 >= 0 ;
+1 x670 -1 x32 -1 x48 >= -1 ;
-1 x660 +1 x31 >= 0 ;
-1 x660 +1 x49 >= 0 ;
+1 x660 -1 x31 -1 x49 >= -1 ;
-1 x650 +1 x30 >= 0 ;
-1 x650 +1 x50 >= 0 ;
+1 x650 -1 x30 -1 x50 >= -1 ;
-1 x640 +1 x29 >= 0 ;
-1 x640 +1 x51 >= 0 ;
+1 x640 -1 x29 -1 x51 >= -1 ;
-1 x630 +1 x28 >= 0 ;
-1 x630 +1 x52 >= 0 ;
+1 x630 -1 x28 -1 x52 >= -1 ;
-1 x620 +1 x27 >= 0 ;
-1 x620 +1 x53 >= 0 ;
+1 x620 -1 x27 -1 x53 >= -1 ;
-1 x610 +1 x26 >= 0 ;
-1 x610 +1 x54 >= 0 ;
+1 x610 -1 x26 -1 x54 >= -1 ;
-1 x600 +1 x25 >= 0 ;
-1 x600 +1 x55 >= 0 ;
+1 x600 -1 x25 -1 x55 >= -1 ;
-1 x590 +1 x24 >= 0 ;
-1 x590 +1 x56 >= 0 ;
+1 x590 -1 x24 -1 x56 >= -1 ;
-1 x246 +1 x45 >= 0 ;
-1 x246 +1 x69 >= 0 ;
+1 x246 -1 x45 -1 x69 >= -1 ;
-1 x235 +1 x44 >= 0 ;
-1 x235 +1 x70 >= 0 ;
+1 x235 -1 x44 -1 x70 >= -1 ;
-1 x224 +1 x43 >= 0 ;
-1 x224 +1 x71 >= 0 ;
+1 x224 -1 x43 -1 x71 >= -1 ;
-1 x213 +1 x42 >= 0 ;
-1 x213 +1 x72 >= 0 ;
+1 x213 -1 x42 -1 x72 >= -1 ;
-1 x202 +1 x41 >= 0 ;
-1 x202 +1 x73 >= 0 ;
+1 x202 -1 x41 -1 x73 >= -1 ;
-1 x191 +1 x40 >= 0 ;
-1 x191 +1 x74 >= 0 ;
+1 x191 -1 x40 -1 x74 >= -1 ;
-1 x180 +1 x39 >= 0 ;
-1 x180 +1 x75 >= 0 ;
+1 x180 -1 x39 -1 x75 >= -1 ;
-1 x169 +1 x38 >= 0 ;
-1 x169 +1 x76 >= 0 ;
+1 x169 -1 x38 -1 x76 >= -1 ;
-1 x158 +1 x37 >= 0 ;
-1 x158 +1 x77 >= 0 ;
+1 x158 -1 x37 -1 x77 >= -1 ;
-1 x147 +1 x36 >= 0 ;
-1 x147 +1 x78 >= 0 ;
+1 x147 -1 x36 -1 x78 >= -1 ;
-1 x136 +1 x35 >= 0 ;
-1 x136 +1 x79 >= 0 ;
+1 x136 -1 x35 -1 x79 >= -1 ;
-1 x681 +1 x33 >= 0 ;
-1 x681 +1 x48 >= 0 ;
+1 x681 -1 x33 -1 x48 >= -1 ;
-1 x671 +1 x32 >= 0 ;
-1 x671 +1 x49 >= 0 ;
+1 x671 -1 x32 -1 x49 >= -1 ;
-1 x661 +1 x31 >= 0 ;
-1 x661 +1 x50 >= 0 ;
+1 x661 -1 x31 -1 x50 >= -1 ;
-1 x651 +1 x30 >= 0 ;
-1 x651 +1 x51 >= 0 ;
+1 x651 -1 x30 -1 x51 >= -1 ;
-1 x641 +1 x29 >= 0 ;
-1 x641 +1 x52 >= 0 ;
+1 x641 -1 x29 -1 x52 >= -1 ;
-1 x631 +1 x28 >= 0 ;
-1 x631 +1 x53 >= 0 ;
+1 x631 -1 x28 -1 x53 >= -1 ;
-1 x621 +1 x27 >= 0 ;
-1 x621 +1 x54 >= 0 ;
+1 x621 -1 x27 -1 x54 >= -1 ;
-1 x611 +1 x26 >= 0 ;
-1 x611 +1 x55 >= 0 ;
+1 x611 -1 x26 -1 x55 >= -1 ;
-1 x601 +1 x25 >= 0 ;
-1 x601 +1 x56 >= 0 ;
+1 x601 -1 x25 -1 x56 >= -1 ;
-1 x247 +1 x45 >= 0 ;
-1 x247 +1 x70 >= 0 ;
+1 x247 -1 x45 -1 x70 >= -1 ;
-1 x236 +1 x44 >= 0 ;
-1 x236 +1 x71 >= 0 ;
+1 x236 -1 x44 -1 x71 >= -1 ;
-1 x225 +1 x43 >= 0 ;
-1 x225 +1 x72 >= 0 ;
+1 x225 -1 x43 -1 x72 >= -1 ;
-1 x214 +1 x42 >= 0 ;
-1 x214 +1 x73 >= 0 ;
+1 x214 -1 x42 -1 x73 >= -1 ;
-1 x203 +1 x41 >= 0 ;
-1 x203 +1 x74 >= 0 ;
+1 x203 -1 x41 -1 x74 >= -1 ;
-1 x192 +1 x40 >= 0 ;
-1 x192 +1 x75 >= 0 ;
+1 x192 -1 x40 -1 x75 >= -1 ;
-1 x181 +1 x39 >= 0 ;
-1 x181 +1 x76 >= 0 ;
+1 x181 -1 x39 -1 x76 >= -1 ;
-1 x170 +1 x38 >= 0 ;
-1 x170 +1 x77 >= 0 ;
+1 x170 -1 x38 -1 x77 >= -1 ;
-1 x159 +1 x37 >= 0 ;
-1 x159 +1 x78 >= 0 ;
+1 x159 -1 x37 -1 x78 >= -1 ;
-1 x148 +1 x36 >= 0 ;
-1 x148 +1 x79 >= 0 ;
+1 x148 -1 x36 -1 x79 >= -1 ;
-1 x682 +1 x33 >= 0 ;
-1 x682 +1 x49 >= 0 ;
+1 x682 -1 x33 -1 x49 >= -1 ;
-1 x672 +1 x32 >= 0 ;
-1 x672 +1 x50 >= 0 ;
+1 x672 -1 x32 -1 x50 >= -1 ;
-1 x662 +1 x31 >= 0 ;
-1 x662 +1 x51 >= 0 ;
+1 x662 -1 x31 -1 x51 >= -1 ;
-1 x652 +1 x30 >= 0 ;
-1 x652 +1 x52 >= 0 ;
+1 x652 -1 x30 -1 x52 >= -1 ;
-1 x642 +1 x29 >= 0 ;
-1 x642 +1 x53 >= 0 ;
+1 x642 -1 x29 -1 x53 >= -1 ;
-1 x632 +1 x28 >= 0 ;
-1 x632 +1 x54 >= 0 ;
+1 x632 -1 x28 -1 x54 >= -1 ;
-1 x622 +1 x27 >= 0 ;
-1 x622 +1 x55 >= 0 ;
+1 x622 -1 x27 -1 x55 >= -1 ;
-1 x612 +1 x26 >= 0 ;
-1 x612 +1 x56 >= 0 ;
+1 x612 -1 x26 -1 x56 >= -1 ;
-1 x248 +1 x45 >= 0 ;
-1 x248 +1 x71 >= 0 ;
+1 x248 -1 x45 -1 x71 >= -1 ;
-1 x237 +1 x44 >= 0 ;
-1 x237 +1 x72 >= 0 ;
+1 x237 -1 x44 -1 x72 >= -1 ;
-1 x226 +1 x43 >= 0 ;
-1 x226 +1 x73 >= 0 ;
+1 x226 -1 x43 -1 x73 >= -1 ;
-1 x215 +1 x42 >= 0 ;
-1 x215 +1 x74 >= 0 ;
+1 x215 -1 x42 -1 x74 >= -1 ;
-1 x204 +1 x41 >= 0 ;
-1 x204 +1 x75 >= 0 ;
+1 x204 -1 x41 -1 x75 >= -1 ;
-1 x193 +1 x40 >= 0 ;
-1 x193 +1 x76 >= 0 ;
+1 x193 -1 x40 -1 x76 >= -1 ;
-1 x182 +1 x39 >= 0 ;
-1 x182 +1 x77 >= 0 ;
+1 x182 -1 x39 -1 x77 >= -1 ;
-1 x171 +1 x38 >= 0 ;
-1 x171 +1 x78 >= 0 ;
+1 x171 -1 x38 -1 x78 >= -1 ;
-1 x160 +1 x37 >= 0 ;
-1 x160 +1 x79 >= 0 ;
+1 x160 -1 x37 -1 x79 >= -1 ;
-1 x683 +1 x33 >= 0 ;
-1 x683 +1 x50 >= 0 ;
+1 x683 -1 x33 -1 x50 >= -1 ;
-1 x673 +1 x32 >= 0 ;
-1 x673 +1 x51 >= 0 ;
+1 x673 -1 x32 -1 x51 >= -1 ;
-1 x663 +1 x31 >= 0 ;
-1 x663 +1 x52 >= 0 ;
+1 x663 -1 x31 -1 x52 >= -1 ;
-1 x653 +1 x30 >= 0 ;
-1 x653 +1 x53 >= 0 ;
+1 x653 -1 x30 -1 x53 >= -1 ;
-1 x643 +1 x29 >= 0 ;
-1 x643 +1 x54 >= 0 ;
+1 x643 -1 x29 -1 x54 >= -1 ;
-1 x633 +1 x28 >= 0 ;
-1 x633 +1 x55 >= 0 ;
+1 x633 -1 x28 -1 x55 >= -1 ;
-1 x623 +1 x27 >= 0 ;
-1 x623 +1 x56 >= 0 ;
+1 x623 -1 x27 -1 x56 >= -1 ;
-1 x249 +1 x45 >= 0 ;
-1 x249 +1 x72 >= 0 ;
+1 x249 -1 x45 -1 x72 >= -1 ;
-1 x238 +1 x44 >= 0 ;
-1 x238 +1 x73 >= 0 ;
+1 x238 -1 x44 -1 x73 >= -1 ;
-1 x227 +1 x43 >= 0 ;
-1 x227 +1 x74 >= 0 ;
+1 x227 -1 x43 -1 x74 >= -1 ;
-1 x216 +1 x42 >= 0 ;
-1 x216 +1 x75 >= 0 ;
+1 x216 -1 x42 -1 x75 >= -1 ;
-1 x205 +1 x41 >= 0 ;
-1 x205 +1 x76 >= 0 ;
+1 x205 -1 x41 -1 x76 >= -1 ;
-1 x194 +1 x40 >= 0 ;
-1 x194 +1 x77 >= 0 ;
+1 x194 -1 x40 -1 x77 >= -1 ;
-1 x183 +1 x39 >= 0 ;
-1 x183 +1 x78 >= 0 ;
+1 x183 -1 x39 -1 x78 >= -1 ;
-1 x172 +1 x38 >= 0 ;
-1 x172 +1 x79 >= 0 ;
+1 x172 -1 x38 -1 x79 >= -1 ;
-1 x684 +1 x33 >= 0 ;
-1 x684 +1 x51 >= 0 ;
+1 x684 -1 x33 -1 x51 >= -1 ;
-1 x674 +1 x32 >= 0 ;
-1 x674 +1 x52 >= 0 ;
+1 x674 -1 x32 -1 x52 >= -1 ;
-1 x664 +1 x31 >= 0 ;
-1 x664 +1 x53 >= 0 ;
+1 x664 -1 x31 -1 x53 >= -1 ;
-1 x654 +1 x30 >= 0 ;
-1 x654 +1 x54 >= 0 ;
+1 x654 -1 x30 -1 x54 >= -1 ;
-1 x644 +1 x29 >= 0 ;
-1 x644 +1 x55 >= 0 ;
+1 x644 -1 x29 -1 x55 >= -1 ;
-1 x634 +1 x28 >= 0 ;
-1 x634 +1 x56 >= 0 ;
+1 x634 -1 x28 -1 x56 >= -1 ;
-1 x250 +1 x45 >= 0 ;
-1 x250 +1 x73 >= 0 ;
+1 x250 -1 x45 -1 x73 >= -1 ;
-1 x239 +1 x44 >= 0 ;
-1 x239 +1 x74 >= 0 ;
+1 x239 -1 x44 -1 x74 >= -1 ;
-1 x228 +1 x43 >= 0 ;
-1 x228 +1 x75 >= 0 ;
+1 x228 -1 x43 -1 x75 >= -1 ;
-1 x217 +1 x42 >= 0 ;
-1 x217 +1 x76 >= 0 ;
+1 x217 -1 x42 -1 x76 >= -1 ;
-1 x206 +1 x41 >= 0 ;
-1 x206 +1 x77 >= 0 ;
+1 x206 -1 x41 -1 x77 >= -1 ;
-1 x195 +1 x40 >= 0 ;
-1 x195 +1 x78 >= 0 ;
+1 x195 -1 x40 -1 x78 >= -1 ;
-1 x184 +1 x39 >= 0 ;
-1 x184 +1 x79 >= 0 ;
+1 x184 -1 x39 -1 x79 >= -1 ;
-1 x685 +1 x33 >= 0 ;
-1 x685 +1 x52 >= 0 ;
+1 x685 -1 x33 -1 x52 >= -1 ;
-1 x675 +1 x32 >= 0 ;
-1 x675 +1 x53 >= 0 ;
+1 x675 -1 x32 -1 x53 >= -1 ;
-1 x665 +1 x31 >= 0 ;
-1 x665 +1 x54 >= 0 ;
+1 x665 -1 x31 -1 x54 >= -1 ;
-1 x655 +1 x30 >= 0 ;
-1 x655 +1 x55 >= 0 ;
+1 x655 -1 x30 -1 x55 >= -1 ;
-1 x645 +1 x29 >= 0 ;
-1 x645 +1 x56 >= 0 ;
+1 x645 -1 x29 -1 x56 >= -1 ;
-1 x251 +1 x45 >= 0 ;
-1 x251 +1 x74 >= 0 ;
+1 x251 -1 x45 -1 x74 >= -1 ;
-1 x240 +1 x44 >= 0 ;
-1 x240 +1 x75 >= 0 ;
+1 x240 -1 x44 -1 x75 >= -1 ;
-1 x229 +1 x43 >= 0 ;
-1 x229 +1 x76 >= 0 ;
+1 x229 -1 x43 -1 x76 >= -1 ;
-1 x218 +1 x42 >= 0 ;
-1 x218 +1 x77 >= 0 ;
+1 x218 -1 x42 -1 x77 >= -1 ;
-1 x207 +1 x41 >= 0 ;
-1 x207 +1 x78 >= 0 ;
+1 x207 -1 x41 -1 x78 >= -1 ;
-1 x196 +1 x40 >= 0 ;
-1 x196 +1 x79 >= 0 ;
+1 x196 -1 x40 -1 x79 >= -1 ;
-1 x686 +1 x33 >= 0 ;
-1 x686 +1 x53 >= 0 ;
+1 x686 -1 x33 -1 x53 >= -1 ;
-1 x676 +1 x32 >= 0 ;
-1 x676 +1 x54 >= 0 ;
+1 x676 -1 x32 -1 x54 >= -1 ;
-1 x666 +1 x31 >= 0 ;
-1 x666 +1 x55 >= 0 ;
+1 x666 -1 x31 -1 x55 >= -1 ;
-1 x656 +1 x30 >= 0 ;
-1 x656 +1 x56 >= 0 ;
+1 x656 -1 x30 -1 x56 >= -1 ;
-1 x252 +1 x45 >= 0 ;
-1 x252 +1 x75 >= 0 ;
+1 x252 -1 x45 -1 x75 >= -1 ;
-1 x241 +1 x44 >= 0 ;
-1 x241 +1 x76 >= 0 ;
+1 x241 -1 x44 -1 x76 >= -1 ;
-1 x230 +1 x43 >= 0 ;
-1 x230 +1 x77 >= 0 ;
+1 x230 -1 x43 -1 x77 >= -1 ;
-1 x219 +1 x42 >= 0 ;
-1 x219 +1 x78 >= 0 ;
+1 x219 -1 x42 -1 x78 >= -1 ;
-1 x208 +1 x41 >= 0 ;
-1 x208 +1 x79 >= 0 ;
+1 x208 -1 x41 -1 x79 >= -1 ;
-1 x687 +1 x33 >= 0 ;
-1 x687 +1 x54 >= 0 ;
+1 x687 -1 x33 -1 x54 >= -1 ;
-1 x677 +1 x32 >= 0 ;
-1 x677 +1 x55 >= 0 ;
+1 x677 -1 x32 -1 x55 >= -1 ;
-1 x667 +1 x31 >= 0 ;
-1 x667 +1 x56 >= 0 ;
+1 x667 -1 x31 -1 x56 >= -1 ;
-1 x253 +1 x45 >= 0 ;
-1 x253 +1 x76 >= 0 ;
+1 x253 -1 x45 -1 x76 >= -1 ;
-1 x242 +1 x44 >= 0 ;
-1 x242 +1 x77 >= 0 ;
+1 x242 -1 x44 -1 x77 >= -1 ;
-1 x231 +1 x43 >= 0 ;
-1 x231 +1 x78 >= 0 ;
+1 x231 -1 x43 -1 x78 >= -1 ;
-1 x220 +1 x42 >= 0 ;
-1 x220 +1 x79 >= 0 ;
+1 x220 -1 x42 -1 x79 >= -1 ;
-1 x688 +1 x33 >= 0 ;
-1 x688 +1 x55 >= 0 ;
+1 x688 -1 x33 -1 x55 >= -1 ;
-1 x678 +1 x32 >= 0 ;
-1 x678 +1 x56 >= 0 ;
+1 x678 -1 x32 -1 x56 >= -1 ;
-1 x254 +1 x45 >= 0 ;
-1 x254 +1 x77 >= 0 ;
+1 x254 -1 x45 -1 x77 >= -1 ;
-1 x243 +1 x44 >= 0 ;
-1 x243 +1 x78 >= 0 ;
+1 x243 -1 x44 -1 x78 >= -1 ;
-1 x232 +1 x43 >= 0 ;
-1 x232 +1 x79 >= 0 ;
+1 x232 -1 x43 -1 x79 >= -1 ;
-1 x689 +1 x33 >= 0 ;
-1 x689 +1 x56 >= 0 ;
+1 x689 -1 x33 -1 x56 >= -1 ;
-1 x255 +1 x45 >= 0 ;
-1 x255 +1 x78 >= 0 ;
+1 x255 -1 x45 -1 x78 >= -1 ;
-1 x244 +1 x44 >= 0 ;
-1 x244 +1 x79 >= 0 ;
+1 x244 -1 x44 -1 x79 >= -1 ;
-1 x256 +1 x45 >= 0 ;
-1 x256 +1 x79 >= 0 ;
+1 x256 -1 x45 -1 x79 >= -1 ;
